W=7;
H=6;

MAX_TIME=34;
MAX_TRACKS=14;
SEMAPHORE_SUPPLY=1;

TARGET=(1,7);

TRAINS=[(5,1,RIGHT),(2,4,RIGHT),(4,4,LEFT)];
DECOYS=[];

INIT_POS=[
(1,4,STRAIGHT_RL),
(1,6,STRAIGHT_RL),
(1,7,STRAIGHT_RL),
(2,2,DSWITCH_R_L_T),
(2,3,SWITCH_R_L_D),
(2,4,STRAIGHT_RL),
(2,5,STRAIGHT_RL),
(2,6,DSWITCH_L_R_D),
(3,4,STRAIGHT_RL),
(4,2,DSWITCH_L_R_T),
(4,3,STRAIGHT_RL),
(4,4,STRAIGHT_RL),
(4,5,STRAIGHT_RL),
(4,6,DSWITCH_L_R_D),
(5,1,STRAIGHT_RL),
(6,6,CORNER_TL),
];
TUNNEL_PAIRS=[
  (2, 7, LEFT, 4, 1, RIGHT),
  (2, 1, RIGHT, 4, 7, LEFT),
];

GATES=[];
ACTIVATIONS=[
(1,4,1),
(3,4,1),
(6,6,1),
];

DSWITCHES=[
(2,2,1),
(2,6,1),
(4,2,1),
(4,6,1),
];
STATIONS=[];
